p cnf 36 98
a 14 15 0
e 1 2 3 4 5 6 7 8 9 10 11 12 13 16 17 18 19 20 21 22 23 24 25 26 27 28 29 30 31 32 33 34 35 36 0
-3 -2 -4 0
3 2 -4 0
-3 2 4 0
3 -2 4 0
5 -2 0
5 -4 0
2 4 -5 0
-6 5 0
-6 -4 0
-5 4 6 0
-7 1 0
-7 6 0
-1 -6 7 0
-8 -7 0
-8 4 0
7 -4 8 0
9 6 0
9 -7 0
-6 7 -9 0
-3 -1 -10 0
3 1 -10 0
-3 1 10 0
3 -1 10 0
11 9 0
11 10 0
-9 -10 -11 0
12 8 0
12 11 0
-8 -11 -12 0
13 -14 -15 0
-13 14 -15 0
13 14 15 0
-13 -14 15 0
-16 12 0
-16 -15 0
-12 15 16 0
17 -4 0
17 -14 0
4 14 -17 0
-5 -1 -18 0
5 1 -18 0
-5 1 18 0
5 -1 18 0
-20 4 0
-20 19 0
-4 -19 20 0
21 2 0
21 -2 0
-22 20 0
-22 21 0
-20 -21 22 0
23 18 0
23 -22 0
-18 22 -23 0
-24 17 0
-24 23 0
-17 -23 24 0
25 -16 0
25 24 0
16 -24 -25 0
-26 -20 0
-26 5 0
20 -5 26 0
-28 27 0
-28 6 0
-27 -6 28 0
29 -26 0
29 -28 0
26 28 -29 0
-31 21 0
-31 30 0
-21 -30 31 0
32 29 0
32 -31 0
-29 31 -32 0
-33 19 0
-33 -5 0
-19 5 33 0
7 33 -34 0
-7 -33 -34 0
7 -33 34 0
-7 33 34 0
35 32 0
35 -34 0
-32 34 -35 0
-36 25 0
-36 35 0
-25 -35 36 0
11 -1 35 0
11 29 35 -20 34 0
-13 8 26 -1 30 0
29 -16 21 -20 24 -1 0
10 25 -2 4 0
18 6 -33 -31 -15 0
-20 15 29 -6 -11 -36 0
25 32 10 18 0
-31 35 -36 -10 3 -18 -23 0
36 0
